Reading model...
...model read.
creating competitive generators file...
...competitive generators recorded.
Loading data...
.. real-time data read.
Compiling instance...
...instance created.
Creating Offer Mitigation (model will solve as dispatch if TRUE)...
...storage offer mitigation file created
Converting model to MPEC...
...converted
NOTE: initial MIP solve with only storage competitive to get feasible solution
Solving...

Welcome to IBM(R) ILOG(R) CPLEX(R) Interactive Optimizer 12.9.0.0
  with Simplex, Mixed Integer & Barrier Optimizers
5725-A06 5725-A29 5724-Y48 5724-Y49 5724-Y54 5724-Y55 5655-Y21
Copyright IBM Corp. 1988, 2019.  All Rights Reserved.

Type 'help' for a list of available commands.
Type 'help' followed by a command name for more
information on commands.

CPLEX> Logfile 'cplex.log' closed.
Logfile 'C:\Users\llavin\Desktop\test826\logs\tmpq331i91l.cplex.log' open.
CPLEX> New value for parallel optimization mode: -1
CPLEX> New value for mixed integer optimality gap tolerance: 0.01
CPLEX> New value for feasibility tolerance: 1e-09
CPLEX> New value for deterministic time limit in ticks: 100000
CPLEX> Problem 'C:\Users\llavin\Desktop\test826\logs\tmptm8lv9kn.pyomo.lp' read.
Read time = 0.52 sec. (28.55 ticks)
CPLEX> Problem name         : C:\Users\llavin\Desktop\test826\logs\tmptm8lv9kn.pyomo.lp
Objective sense      : Maximize
Variables            :  107781  [Nneg: 1,  Box: 44056,  Free: 8928,
                                 Binary: 54796]
Objective nonzeros   :   19009
Linear constraints   :  246901  [Less: 82866,  Greater: 118424,  Equal: 45611]
  Nonzeros           :  619709
  RHS nonzeros       :  136515

Variables            : Min LB: -5000.000        Max UB: 1000000.       
Objective nonzeros   : Min   : 0.1666667        Max   : 3000.000       
Linear constraints   :
  Nonzeros           : Min   : 0.1666667        Max   : 1000000.       
  RHS nonzeros       : Min   : 0.1666667        Max   : 1000000.       
CPLEX> CPXPARAM_Parallel                                -1
CPXPARAM_Simplex_Tolerances_Feasibility          1.0000000000000001e-09
CPXPARAM_DetTimeLimit                            100000
CPXPARAM_MIP_Tolerances_MIPGap                   0.01
Tried aggregator 3 times.
MIP Presolve eliminated 172683 rows and 33968 columns.
MIP Presolve added 7727 rows and 0 columns.
MIP Presolve modified 53862 coefficients.
Aggregator did 26100 substitutions.
Reduced MIP has 55845 rows, 47329 columns, and 181751 nonzeros.
Reduced MIP has 18777 binaries, 0 generals, 0 SOSs, and 0 indicators.
Presolve time = 0.63 sec. (385.38 ticks)
Probing fixed 714 vars, tightened 10560 bounds.
Probing time = 0.42 sec. (17.24 ticks)
Tried aggregator 2 times.
MIP Presolve eliminated 1633 rows and 1456 columns.
MIP Presolve modified 7055 coefficients.
Aggregator did 80 substitutions.
Reduced MIP has 54132 rows, 45793 columns, and 176694 nonzeros.
Reduced MIP has 18058 binaries, 0 generals, 0 SOSs, and 0 indicators.
Presolve time = 0.31 sec. (292.19 ticks)
Probing fixed 5 vars, tightened 367 bounds.
Probing time = 0.58 sec. (21.94 ticks)
Clique table members: 97026.
MIP emphasis: balance optimality and feasibility.
MIP search method: dynamic search.
Parallel mode: opportunistic, using up to 32 threads.
Root relaxation solution time = 1.45 sec. (2423.41 ticks)

        Nodes                                         Cuts/
   Node  Left     Objective  IInf  Best Integer    Best Bound    ItCnt     Gap

      0     0       -0.0000    13                     -0.0000    11020         
      0     0       -2.9367     2                 Flowcuts: 1    11059         
      0     0       -2.9367     2                     Cuts: 3    11060         
      0     0       -5.4188     5                     Cuts: 2    11067         
*     0+    0                           -0.0000       -5.4188              --- 
      0     0        cutoff             -0.0000       -5.4188    11073     --- 
Elapsed time = 6.05 sec. (5449.52 ticks, tree = 0.01 MB, solutions = 1)

Cover cuts applied:  2
Flow cuts applied:  4
Mixed integer rounding cuts applied:  2

Root node processing (before b&c):
  Real time             =    6.08 sec. (5453.35 ticks)
Parallel b&c, 32 threads:
  Real time             =    0.00 sec. (0.00 ticks)
  Sync time (average)   =    0.00 sec.
  Wait time (average)   =    0.00 sec.
                          ------------
Total (root+branch&cut) =    6.08 sec. (5453.35 ticks)

Solution pool: 1 solution saved.

MIP - Integer optimal solution:  Objective = -4.1762584232e-05
Solution time =    6.09 sec.  Iterations = 11073  Nodes = 0
Deterministic time = 5453.66 ticks  (895.07 ticks/sec)

CPLEX> Incumbent solution written to file 'C:\Users\llavin\Desktop\test826\logs\tmpob_rzdek.cplex.sol'.
CPLEX> NOTE: no warmstart specified for MIP iteration, default behavior is true
NOTE: resolving with all competitive generators using storage-only solution to warmstart
Solving...

Welcome to IBM(R) ILOG(R) CPLEX(R) Interactive Optimizer 12.9.0.0
  with Simplex, Mixed Integer & Barrier Optimizers
5725-A06 5725-A29 5724-Y48 5724-Y49 5724-Y54 5724-Y55 5655-Y21
Copyright IBM Corp. 1988, 2019.  All Rights Reserved.

Type 'help' for a list of available commands.
Type 'help' followed by a command name for more
information on commands.

CPLEX> Logfile 'cplex.log' closed.
Logfile 'C:\Users\llavin\Desktop\test826\logs\tmp84qe9mse.cplex.log' open.
CPLEX> New value for parallel optimization mode: -1
CPLEX> New value for mixed integer optimality gap tolerance: 0.01
CPLEX> New value for feasibility tolerance: 1e-09
CPLEX> New value for deterministic time limit in ticks: 100000
CPLEX> Problem 'C:\Users\llavin\Desktop\test826\logs\tmpyeocvtaf.pyomo.lp' read.
Read time = 0.55 sec. (28.60 ticks)
CPLEX> MIP start file 'C:\Users\llavin\Desktop\test826\logs\tmp1ocf1xit.cplex.mst' read.
CPLEX> Problem name         : C:\Users\llavin\Desktop\test826\logs\tmpyeocvtaf.pyomo.lp
Objective sense      : Maximize
Variables            :  109221  [Nneg: 1,  Box: 45496,  Free: 8928,
                                 Binary: 54796]
Objective nonzeros   :   20401
Linear constraints   :  246901  [Less: 82866,  Greater: 118424,  Equal: 45611]
  Nonzeros           :  619709
  RHS nonzeros       :  136515

Variables            : Min LB: -5000.000        Max UB: 1000000.       
Objective nonzeros   : Min   : 0.1666667        Max   : 3000.000       
Linear constraints   :
  Nonzeros           : Min   : 0.1666667        Max   : 1000000.       
  RHS nonzeros       : Min   : 0.1666667        Max   : 1000000.       
CPLEX> CPXPARAM_Parallel                                -1
CPXPARAM_Simplex_Tolerances_Feasibility          1.0000000000000001e-09
CPXPARAM_DetTimeLimit                            100000
CPXPARAM_MIP_Tolerances_MIPGap                   0.01
Warning:  No solution found from 1 MIP starts.
Retaining values of one MIP start for possible repair.
Tried aggregator 3 times.
MIP Presolve eliminated 172683 rows and 35408 columns.
MIP Presolve added 7727 rows and 0 columns.
MIP Presolve modified 53862 coefficients.
Aggregator did 26100 substitutions.
Reduced MIP has 55845 rows, 47329 columns, and 181751 nonzeros.
Reduced MIP has 18777 binaries, 0 generals, 0 SOSs, and 0 indicators.
Presolve time = 0.66 sec. (386.12 ticks)
Probing fixed 714 vars, tightened 10560 bounds.
Probing time = 0.45 sec. (17.24 ticks)
Tried aggregator 2 times.
MIP Presolve eliminated 1633 rows and 1456 columns.
MIP Presolve modified 7055 coefficients.
Aggregator did 80 substitutions.
Reduced MIP has 54132 rows, 45793 columns, and 176694 nonzeros.
Reduced MIP has 18058 binaries, 0 generals, 0 SOSs, and 0 indicators.
Presolve time = 0.33 sec. (292.20 ticks)
Probing fixed 5 vars, tightened 367 bounds.
Probing time = 0.63 sec. (21.94 ticks)
Clique table members: 97026.
MIP emphasis: balance optimality and feasibility.
MIP search method: dynamic search.
Parallel mode: opportunistic, using up to 32 threads.
Root relaxation solution time = 1.72 sec. (2609.99 ticks)

        Nodes                                         Cuts/
   Node  Left     Objective  IInf  Best Integer    Best Bound    ItCnt     Gap

      0     0      964.3896    65                    964.3896    12269         
      0     0      961.4529    13                 Flowcuts: 7    12288         
      0     0      961.4529    17                     Cuts: 9    12314         
      0     0      956.1875    21                    Cuts: 13    12357         
      0     0      947.8703    31                     Cuts: 6    12388         
      0     0      945.9978    25                    Cuts: 11    12399         
      0     0      945.0979    35                     Cuts: 6    12407         
      0     0      945.0979    35                     Cuts: 5    12410         
Repair heuristic found nothing.
      0    23      313.8682     5                    756.6704    12620         
Elapsed time = 17.34 sec. (11927.23 ticks, tree = 0.02 MB, solutions = 0)
    296   177      316.8742     5                    577.6805    14664         
    504   124      316.8742     4                    577.6805    13947         
    708   162      361.1354     4                    577.6805    14237         
    953   224    -1296.4392     4                    577.6805    14982         
   1195   850      147.8655     2                    577.6805    22625         
   1408  1028      103.7031     1                    577.6805    24632         
   1634   916      106.0207     3                    577.6805    23243         
   1830  1178      258.0397     4                    577.6805    26666         
   2049  1455       49.0386     2                    577.6805    28866         
   2999  2531       90.8833     1                    577.6805    42776         
Elapsed time = 38.91 sec. (15039.39 ticks, tree = 39.85 MB, solutions = 0)
   3879  2865       83.4592     1                    577.6805    46999         
   4677  3589      -78.4011     1                    577.6805    58543         
   5497  4612     -151.1478     2                    577.6805    76937         
   5960  4741    -2866.6338    27                    577.6805    79625         
   6010  5593      649.7556    39                    577.6805   112074         
   6420    67      142.1677     7                    577.6805   113448         
*  6859+  555                        -2109.4737      577.6805           127.39%
   6929   159      150.2817     6    -2109.4737      577.6805   114752  127.39%
   7561  1296      103.8507     2    -2109.4737      577.6805   120178  127.39%
   8427   958      -73.3335     1    -2109.4737      577.6805   119131  127.39%
   9465  1461      125.1381     2    -2109.4737      577.6805   121034  127.39%
Elapsed time = 129.55 sec. (35461.20 ticks, tree = 16.57 MB, solutions = 2)
  10796  1832       85.1855     4    -2109.4737      577.6805   124636  127.39%
  12234  1361       22.8420     3    -2109.4737      577.6805   120385  127.39%
  13611  2659      -49.5688     2    -2109.4737      577.6805   130347  127.39%
  15141  2453     -138.0545     4    -2109.4737      577.6805   129504  127.39%
  16617  4711       94.5798     3    -2109.4737      577.6805   141745  127.39%
  18130  6804       96.3058     2    -2109.4737      577.6805   152581  127.39%
  19504  5290      -50.6408     2    -2109.4737      577.6805   144541  127.39%
  20798  6731    -1950.1955     3    -2109.4737      577.6805   151697  127.39%
  21764  7553      113.4516     4    -2109.4737      577.6805   155532  127.39%
  22275  8690      101.8623     3    -2109.4737      577.6805   161608  127.39%
Elapsed time = 169.16 sec. (45012.52 ticks, tree = 1404.24 MB, solutions = 2)
  22390 14636        cutoff          -2109.4737      375.6920   205449  117.81%
  22722    82       11.2747     7    -2109.4737      375.6920   206971  117.81%
* 23086+   83                        -1821.6219      375.6920           120.62%
  23214   132      124.3296     6    -1821.6219      375.6920   207356  120.62%
  23708   233      179.9889     6    -1821.6219      375.6920   208425  120.62%
  24254   674       83.9300     8    -1821.6219      375.6920   210940  120.62%
  24761  1311       20.7414     5    -1821.6219      375.6920   214055  120.62%
  25286  1336       54.2458     3    -1821.6219      375.6920   214569  120.62%
  25919  1635       50.0825     4    -1821.6219      375.6920   216856  120.62%
  26647  2590      105.0047     6    -1821.6219      375.6920   223935  120.62%
  27466  2892     -100.5729     2    -1821.6219      375.6920   226347  120.62%
Elapsed time = 282.63 sec. (64914.73 ticks, tree = 39.32 MB, solutions = 3)
  28402  3707     -134.9038     4    -1821.6219      375.6920   232880  120.62%
  29429  3669       83.3596     8    -1821.6219      375.6920   232713  120.62%
  30419  3386       94.5798     3    -1821.6219      375.6920   230805  120.62%
  31459  3352       75.8159     6    -1821.6219      375.6920   229953  120.62%
  32379  5574      134.8531     6    -1821.6219      375.6920   245771  120.62%
  33356  5417     -241.6063     8    -1821.6219      345.4194   244543  118.96%
  34277  7187       58.9188     3    -1821.6219      345.4194   253709  118.96%
  35271  8283      -40.6664     8    -1821.6219      345.4194   260284  118.96%
  36306  7156      -52.9607     1    -1821.6219      342.1355   253279  118.78%
  37323  7904       63.5615     3    -1821.6219      342.1355   258282  118.78%
Elapsed time = 347.52 sec. (74468.68 ticks, tree = 126.45 MB, solutions = 3)
  38537  8410      157.8408     5    -1821.6219      319.4534   261148  117.54%
  39833 14569     -195.0367     7    -1821.6219      298.3116   294154  116.38%
  41122 11970      -40.7893     5    -1821.6219      289.5162   281048  115.89%
  42497 13920      214.2435     4    -1821.6219      289.5162   291317  115.89%
  43887 15476       48.0225     4    -1821.6219      289.5162   298981  115.89%
  45314 14591      130.6003     7    -1821.6219      289.5162   294190  115.89%
  46828 18085       48.0225     5    -1821.6219      289.5162   312932  115.89%
  48291 20889       85.9448     3    -1821.6219      270.1278   329285  114.83%
  49802 16408      214.2435     4    -1821.6219      259.6564   304871  114.25%
  51328 23756      -67.6678     7    -1821.6219      259.6564   343479  114.25%
Elapsed time = 403.11 sec. (84012.60 ticks, tree = 402.02 MB, solutions = 3)
  52800 21014      101.9814     4    -1821.6219      259.6564   330070  114.25%
  54149 19865       83.4595     3    -1821.6219      259.6564   322719  114.25%
  55468 22098       -5.2039     5    -1821.6219      237.0194   334933  113.01%
  56498 24433      125.1381     3    -1821.6219      232.4444   347124  112.76%
  57522 24345        cutoff          -1821.6219      232.4444   347099  112.76%
  58619 34284      125.1381     2    -1821.6219      232.4444   402053  112.76%
  59807 32368       85.9448     3    -1821.6219      231.2731   390139  112.70%
  60728 33612     -653.9643    80    -1821.6219      231.2731   396921  112.70%
  61604 36369      101.9814     4    -1821.6219      231.2731   414931  112.70%
  62548 35001      -38.5057     6    -1821.6219      231.2731   405667  112.70%
Elapsed time = 446.39 sec. (93559.10 ticks, tree = 598.50 MB, solutions = 3)
  63607 31766       35.1064     4    -1821.6219      231.2731   386907  112.70%
  64882 31247      105.0047     6    -1821.6219      231.2731   384188  112.70%
  66265 33048       70.2343     5    -1821.6219      231.2731   394273  112.70%
  67585 35624      109.9450     2    -1821.6219      231.2731   409692  112.70%
  68539 34619       70.2343     5    -1821.6219      231.2731   404128  112.70%
  69267 36061      101.4787     3    -1821.6219      231.2731   412799  112.70%

Cover cuts applied:  9
Flow cuts applied:  44
Mixed integer rounding cuts applied:  10
Gomory fractional cuts applied:  8

Root node processing (before b&c):
  Real time             =   14.20 sec. (11793.48 ticks)
Parallel b&c, 32 threads:
  Real time             =  438.16 sec. (88247.40 ticks)
  Sync time (average)   =    4.93 sec.
  Wait time (average)   =    0.72 sec.
                          ------------
Total (root+branch&cut) =  452.36 sec. (100040.88 ticks)

Solution pool: 3 solutions saved.

MIP - Deterministic time limit exceeded, integer feasible:  Objective = -1.8216218582e+03
Current MIP best bound =  2.1528728937e+02 (gap = 2036.91, 111.82%)
Solution time =  452.39 sec.  Iterations = 464426  Nodes = 69610 (43744)
Deterministic time = 100041.19 ticks  (221.14 ticks/sec)

CPLEX> Incumbent solution written to file 'C:\Users\llavin\Desktop\test826\logs\tmpd73009ku.cplex.sol'.
CPLEX> Exporting results... 
